NAME : 30.75523.tour
COMMENT : Length = 75523
COMMENT : Found by LKH-3 [Keld Helsgaun] Thu Jun 19 18:16:55 2025
TYPE : TOUR
DIMENSION : 100
TOUR_SECTION
1
10
2
69
80
43
97
67
54
65
78
70
37
85
89
5
28
29
86
88
20
27
49
53
61
99
42
8
4
7
96
68
14
21
45
23
79
19
95
55
46
35
57
24
12
90
56
26
64
75
60
82
41
3
77
17
34
71
22
48
40
59
18
76
72
93
63
25
6
100
32
16
13
50
36
58
87
11
47
38
74
98
52
66
15
91
83
73
51
84
94
44
31
33
92
62
9
30
81
39
-1
EOF
